c *********************************
c * Circuit generated by BenCGen
c *
c * Parity_10
c *
c * Ports with 1 gate(s): 1
c * Ports with 2 gate(s): 10
c * Total gates: 11
c *********************************
p cnf 21 41
1 13 0
-1 -13 0
1 -12 0
13 -12 0
-1 -13 12 0
1 2 -14 0
-1 2 14 0
1 -2 14 0
-1 -2 -14 0
3 4 -15 0
-3 4 15 0
3 -4 15 0
-3 -4 -15 0
5 6 -16 0
-5 6 16 0
5 -6 16 0
-5 -6 -16 0
7 8 -17 0
-7 8 17 0
7 -8 17 0
-7 -8 -17 0
9 10 -18 0
-9 10 18 0
9 -10 18 0
-9 -10 -18 0
14 15 -19 0
-14 15 19 0
14 -15 19 0
-14 -15 -19 0
16 17 -20 0
-16 17 20 0
16 -17 20 0
-16 -17 -20 0
19 20 -21 0
-19 20 21 0
19 -20 21 0
-19 -20 -21 0
21 18 -11 0
-21 18 11 0
21 -18 11 0
-21 -18 -11 0
